letting n =  10
letting blocks =  [[1, 1], [1, 3], [1, 5], [1, 8], [1, 9], [2, 2], [2, 3], [2, 4], [2, 5], [2, 9], [2, 10], [3, 1], [3, 2], [3, 5], [3, 8], [3, 9], [3, 10], [4, 2], [4, 3], [4, 5], [4, 6], [4, 8], [4, 9], [5, 1], [5, 4], [5, 5], [5, 7], [5, 8], [6, 2], [6, 4], [6, 5], [6, 6], [6, 8], [6, 10], [7, 2], [7, 3], [7, 4], [7, 6], [7, 7], [7, 9], [8, 1], [8, 4], [8, 7], [8, 8], [8, 9], [8, 10], [9, 3], [9, 4], [9, 6], [9, 10], [10, 1], [10, 2], [10, 3], [10, 6], [10, 7], [10, 10]]
